[[73, 84, 85, 76, 75, 77, 68, 67, 58, 59, 66, 65, 74, 64, 56, 57, 55, 46, 47, 49, 48, 38, 39, 40, 32, 31, 30, 29, 37, 28, 19, 21, 22], [20, 11, 10, 2, 3, 12, 13, 4, 14, 5, 6, 7, 8, 9, 16, 15, 23, 24, 25, 26, 17, 18, 27, 35, 36, 44, 34, 43, 33, 42, 41, 50, 51, 60, 52], [53, 45, 54, 63, 62, 61, 72, 81, 71, 80, 70, 69, 78, 79, 89, 90, 99, 98, 97, 88, 87, 96, 86, 95, 94, 93, 92, 91, 82, 83]]